unknown
(model
; cardinality of BoundSet is 3
(declare-sort BoundSet 0)
; rep: @uc_BoundSet_0
; rep: @uc_BoundSet_1
; rep: @uc_BoundSet_2
; cardinality of UnboundSet is 1
(declare-sort UnboundSet 0)
(declare-fun groundTerm_4 () UnboundSet)
(define-fun IsInYellowShirt ((BOUND_VARIABLE_437 BoundSet)) Bool true)
(define-fun IsOnLog ((BOUND_VARIABLE_437 BoundSet)) Bool true)
(define-fun IsInBluePants ((BOUND_VARIABLE_437 BoundSet)) Bool true)
(define-fun AreStandingOn ((BOUND_VARIABLE_449 BoundSet) (BOUND_VARIABLE_450 BoundSet)) Bool false)
)
sat
(model
; cardinality of BoundSet is 1
(declare-sort BoundSet 0)
; rep: @uc_BoundSet_0
; cardinality of UnboundSet is 1
(declare-sort UnboundSet 0)
(declare-fun groundTerm_7 () UnboundSet)
(define-fun IsInYellowShirt ((BOUND_VARIABLE_474 BoundSet)) Bool true)
(define-fun IsOnLog ((BOUND_VARIABLE_474 BoundSet)) Bool true)
(define-fun IsInBluePants ((BOUND_VARIABLE_474 BoundSet)) Bool true)
(define-fun AreStandingOn ((BOUND_VARIABLE_482 BoundSet) (BOUND_VARIABLE_483 BoundSet)) Bool false)
)
